
(set-logic HORN)
(declare-fun zero_71 () Int)
(declare-fun succ_69 (Int) Int)
(declare-datatypes ((Bool_193 0)) (((false_193) (true_193))))
(declare-fun diseqBool_84 (Bool_193 Bool_193) Bool)
(declare-fun isfalse_84 (Bool_193) Bool)
(declare-fun istrue_84 (Bool_193) Bool)
(assert (isfalse_84 false_193))
(assert (istrue_84 true_193))
(assert (diseqBool_84 false_193 true_193))
(assert (diseqBool_84 true_193 false_193))
(declare-fun and_193 (Bool_193 Bool_193 Bool_193) Bool)
(declare-fun or_196 (Bool_193 Bool_193 Bool_193) Bool)
(declare-fun hence_193 (Bool_193 Bool_193 Bool_193) Bool)
(declare-fun not_195 (Bool_193 Bool_193) Bool)
(assert (and_193 false_193 false_193 false_193))
(assert (and_193 false_193 true_193 false_193))
(assert (and_193 false_193 false_193 true_193))
(assert (and_193 true_193 true_193 true_193))
(assert (or_196 false_193 false_193 false_193))
(assert (or_196 true_193 true_193 false_193))
(assert (or_196 true_193 false_193 true_193))
(assert (or_196 true_193 true_193 true_193))
(assert (hence_193 true_193 false_193 false_193))
(assert (hence_193 false_193 true_193 false_193))
(assert (hence_193 true_193 false_193 true_193))
(assert (hence_193 true_193 true_193 true_193))
(assert (not_195 true_193 false_193))
(assert (not_195 false_193 true_193))
(declare-fun diseqInt (Int Int) Bool)
(declare-fun p_190 (Int Int) Bool)
(declare-fun iszero_69 (Int) Bool)
(declare-fun issucc_69 (Int) Bool)
(assert (forall ((x_28478 Int))
	(p_190 x_28478 (succ_69 x_28478))))
(assert (iszero_69 zero_71))
(assert (forall ((x_28480 Int))
	(issucc_69 (succ_69 x_28480))))
(assert (forall ((x_28481 Int))
	(diseqInt zero_71 (succ_69 x_28481))))
(assert (forall ((x_28482 Int))
	(diseqInt (succ_69 x_28482) zero_71)))
(assert (forall ((x_28483 Int) (x_28484 Int))
	(=> (diseqInt x_28483 x_28484) (diseqInt (succ_69 x_28483) (succ_69 x_28484)))))
(declare-datatypes ((list_134 0)) (((nil_149) (cons_134 (head_268 Int) (tail_268 list_134)))))
(declare-fun diseqlist_134 (list_134 list_134) Bool)
(declare-fun head_269 (Int list_134) Bool)
(declare-fun tail_269 (list_134 list_134) Bool)
(declare-fun isnil_149 (list_134) Bool)
(declare-fun iscons_134 (list_134) Bool)
(assert (forall ((x_28486 Int) (x_28487 list_134))
	(head_269 x_28486 (cons_134 x_28486 x_28487))))
(assert (forall ((x_28486 Int) (x_28487 list_134))
	(tail_269 x_28487 (cons_134 x_28486 x_28487))))
(assert (isnil_149 nil_149))
(assert (forall ((x_28489 Int) (x_28490 list_134))
	(iscons_134 (cons_134 x_28489 x_28490))))
(assert (forall ((x_28491 Int) (x_28492 list_134))
	(diseqlist_134 nil_149 (cons_134 x_28491 x_28492))))
(assert (forall ((x_28493 Int) (x_28494 list_134))
	(diseqlist_134 (cons_134 x_28493 x_28494) nil_149)))
(assert (forall ((x_28495 Int) (x_28496 list_134) (x_28497 Int) (x_28498 list_134))
	(=> (diseqInt x_28495 x_28497) (diseqlist_134 (cons_134 x_28495 x_28496) (cons_134 x_28497 x_28498)))))
(assert (forall ((x_28495 Int) (x_28496 list_134) (x_28497 Int) (x_28498 list_134))
	(=> (diseqlist_134 x_28496 x_28498) (diseqlist_134 (cons_134 x_28495 x_28496) (cons_134 x_28497 x_28498)))))
(declare-datatypes ((pair_56 0)) (((pair_57 (projpair_112 list_134) (projpair_113 list_134)))))
(declare-fun diseqpair_28 (pair_56 pair_56) Bool)
(declare-fun projpair_114 (list_134 pair_56) Bool)
(declare-fun projpair_115 (list_134 pair_56) Bool)
(declare-fun ispair_28 (pair_56) Bool)
(assert (forall ((x_28499 list_134) (x_28500 list_134))
	(projpair_114 x_28499 (pair_57 x_28499 x_28500))))
(assert (forall ((x_28499 list_134) (x_28500 list_134))
	(projpair_115 x_28500 (pair_57 x_28499 x_28500))))
(assert (forall ((x_28502 list_134) (x_28503 list_134))
	(ispair_28 (pair_57 x_28502 x_28503))))
(assert (forall ((x_28504 list_134) (x_28505 list_134) (x_28506 list_134) (x_28507 list_134))
	(=> (diseqlist_134 x_28504 x_28506) (diseqpair_28 (pair_57 x_28504 x_28505) (pair_57 x_28506 x_28507)))))
(assert (forall ((x_28504 list_134) (x_28505 list_134) (x_28506 list_134) (x_28507 list_134))
	(=> (diseqlist_134 x_28505 x_28507) (diseqpair_28 (pair_57 x_28504 x_28505) (pair_57 x_28506 x_28507)))))
(declare-fun take_29 (list_134 Int list_134) Bool)
(assert (forall ((x_28388 list_134) (z_1112 Int) (xs_357 list_134) (z_1111 Int))
	(=> (take_29 x_28388 z_1111 xs_357) (take_29 (cons_134 z_1112 x_28388) (succ_69 z_1111) (cons_134 z_1112 xs_357)))))
(assert (forall ((z_1111 Int))
	(take_29 nil_149 (succ_69 z_1111) nil_149)))
(assert (forall ((y_1172 list_134))
	(take_29 nil_149 zero_71 y_1172)))
(declare-fun plus_63 (Int Int Int) Bool)
(assert (forall ((x_28392 Int) (z_1113 Int) (y_1173 Int))
	(=> (plus_63 x_28392 z_1113 y_1173) (plus_63 (succ_69 x_28392) (succ_69 z_1113) y_1173))))
(assert (forall ((x_28393 Int))
	(plus_63 x_28393 zero_71 x_28393)))
(declare-fun minus_199 (Int Int Int) Bool)
(assert (forall ((x_28394 Int) (y_1175 Int) (z_1114 Int))
	(=> (minus_199 x_28394 z_1114 y_1175) (minus_199 x_28394 (succ_69 z_1114) (succ_69 y_1175)))))
(assert (forall ((z_1114 Int))
	(minus_199 zero_71 (succ_69 z_1114) zero_71)))
(assert (forall ((y_1174 Int))
	(minus_199 zero_71 zero_71 y_1174)))
(declare-fun third_4 (Int Int) Bool)
(assert (third_4 zero_71 (succ_69 (succ_69 zero_71))))
(assert (=> (diseqInt (succ_69 zero_71) (succ_69 (succ_69 zero_71))) (third_4 zero_71 (succ_69 zero_71))))
(assert (third_4 zero_71 (succ_69 (succ_69 zero_71))))
(assert (forall ((x_28401 Int) (x_28402 Int) (x_28403 Int) (y_1176 Int))
	(=> (and (diseqInt (succ_69 y_1176) (succ_69 (succ_69 zero_71))) (diseqInt (succ_69 y_1176) (succ_69 zero_71)) (minus_199 x_28402 (succ_69 y_1176) (succ_69 (succ_69 (succ_69 zero_71)))) (third_4 x_28403 x_28402) (plus_63 x_28401 (succ_69 zero_71) x_28403)) (third_4 x_28401 (succ_69 y_1176)))))
(assert (third_4 zero_71 (succ_69 (succ_69 zero_71))))
(assert (=> (diseqInt (succ_69 zero_71) (succ_69 (succ_69 zero_71))) (third_4 zero_71 (succ_69 zero_71))))
(assert (third_4 zero_71 (succ_69 (succ_69 zero_71))))
(assert (=> (and (diseqInt zero_71 (succ_69 (succ_69 zero_71))) (diseqInt zero_71 (succ_69 zero_71))) (third_4 zero_71 zero_71)))
(declare-fun leq_27 (Bool_193 Int Int) Bool)
(assert (forall ((x_28409 Bool_193) (x_28367 Int) (z_1115 Int))
	(=> (leq_27 x_28409 z_1115 x_28367) (leq_27 x_28409 (succ_69 z_1115) (succ_69 x_28367)))))
(assert (forall ((z_1115 Int))
	(leq_27 false_193 (succ_69 z_1115) zero_71)))
(assert (forall ((y_1177 Int))
	(leq_27 true_193 zero_71 y_1177)))
(declare-fun sort_20 (list_134 Int Int) Bool)
(assert (forall ((x_28368 Int) (y_1178 Int))
	(=> (leq_27 true_193 x_28368 y_1178) (sort_20 (cons_134 x_28368 (cons_134 y_1178 nil_149)) x_28368 y_1178))))
(assert (forall ((x_28368 Int) (y_1178 Int))
	(=> (leq_27 false_193 x_28368 y_1178) (sort_20 (cons_134 y_1178 (cons_134 x_28368 nil_149)) x_28368 y_1178))))
(declare-fun length_17 (Int list_134) Bool)
(assert (forall ((x_28417 Int) (x_28418 Int) (y_1179 Int) (l_19 list_134))
	(=> (and (length_17 x_28418 l_19) (plus_63 x_28417 (succ_69 zero_71) x_28418)) (length_17 x_28417 (cons_134 y_1179 l_19)))))
(assert (length_17 zero_71 nil_149))
(declare-fun drop_31 (list_134 Int list_134) Bool)
(assert (forall ((x_28421 list_134) (z_1117 Int) (xs_358 list_134) (z_1116 Int))
	(=> (drop_31 x_28421 z_1116 xs_358) (drop_31 x_28421 (succ_69 z_1116) (cons_134 z_1117 xs_358)))))
(assert (forall ((z_1116 Int))
	(drop_31 nil_149 (succ_69 z_1116) nil_149)))
(assert (forall ((x_28424 list_134))
	(drop_31 x_28424 zero_71 x_28424)))
(declare-fun splitAt_12 (pair_56 Int list_134) Bool)
(assert (forall ((x_28426 list_134) (x_28427 list_134) (x_28371 Int) (y_1181 list_134))
	(=> (and (take_29 x_28426 x_28371 y_1181) (drop_31 x_28427 x_28371 y_1181)) (splitAt_12 (pair_57 x_28426 x_28427) x_28371 y_1181))))
(declare-fun count_24 (Int Int list_134) Bool)
(assert (forall ((x_28428 Int) (x_28429 Int) (ys_116 list_134) (x_28372 Int))
	(=> (and (count_24 x_28429 x_28372 ys_116) (plus_63 x_28428 (succ_69 zero_71) x_28429)) (count_24 x_28428 x_28372 (cons_134 x_28372 ys_116)))))
(assert (forall ((x_28431 Int) (z_1118 Int) (ys_116 list_134) (x_28372 Int))
	(=> (and (diseqInt x_28372 z_1118) (count_24 x_28431 x_28372 ys_116)) (count_24 x_28431 x_28372 (cons_134 z_1118 ys_116)))))
(assert (forall ((x_28372 Int))
	(count_24 zero_71 x_28372 nil_149)))
(declare-fun x_28373 (list_134 list_134 list_134) Bool)
(assert (forall ((x_28435 list_134) (z_1119 Int) (xs_359 list_134) (y_1183 list_134))
	(=> (x_28373 x_28435 xs_359 y_1183) (x_28373 (cons_134 z_1119 x_28435) (cons_134 z_1119 xs_359) y_1183))))
(assert (forall ((x_28436 list_134))
	(x_28373 x_28436 nil_149 x_28436)))
(declare-fun reverse_6 (list_134 list_134) Bool)
(assert (forall ((x_28437 list_134) (x_28438 list_134) (y_1184 Int) (xs_360 list_134))
	(=> (and (reverse_6 x_28438 xs_360) (x_28373 x_28437 x_28438 (cons_134 y_1184 nil_149))) (reverse_6 x_28437 (cons_134 y_1184 xs_360)))))
(assert (reverse_6 nil_149 nil_149))
(declare-fun nstoogesort_12 (list_134 list_134) Bool)
(declare-fun nstoogesort_13 (list_134 list_134) Bool)
(declare-fun nstoogesort_14 (list_134 list_134) Bool)
(assert (forall ((x_28445 list_134) (x_28446 list_134) (x_28447 list_134) (x_28441 Int) (x_28442 Int) (x_28443 list_134) (ys_117 list_134) (zs_36 list_134) (x_28376 list_134))
	(=> (and (nstoogesort_13 x_28446 zs_36) (reverse_6 x_28447 ys_117) (x_28373 x_28445 x_28446 x_28447) (length_17 x_28441 x_28376) (third_4 x_28442 x_28441) (reverse_6 x_28443 x_28376) (splitAt_12 (pair_57 ys_117 zs_36) x_28442 x_28443)) (nstoogesort_12 x_28445 x_28376))))
(assert (forall ((x_28449 list_134) (x_28450 list_134) (x_28451 list_134) (x_28379 Int) (x_28380 list_134) (y_1186 Int) (y_1185 Int))
	(=> (and (nstoogesort_12 x_28450 (cons_134 y_1185 (cons_134 y_1186 (cons_134 x_28379 x_28380)))) (nstoogesort_14 x_28451 x_28450) (nstoogesort_12 x_28449 x_28451)) (nstoogesort_13 x_28449 (cons_134 y_1185 (cons_134 y_1186 (cons_134 x_28379 x_28380)))))))
(assert (forall ((x_28453 list_134) (y_1186 Int) (y_1185 Int))
	(=> (sort_20 x_28453 y_1185 y_1186) (nstoogesort_13 x_28453 (cons_134 y_1185 (cons_134 y_1186 nil_149))))))
(assert (forall ((y_1185 Int))
	(nstoogesort_13 (cons_134 y_1185 nil_149) (cons_134 y_1185 nil_149))))
(assert (nstoogesort_13 nil_149 nil_149))
(assert (forall ((x_28460 list_134) (x_28461 list_134) (x_28457 Int) (x_28458 Int) (ys_118 list_134) (zs_37 list_134) (x_28381 list_134))
	(=> (and (nstoogesort_13 x_28461 zs_37) (x_28373 x_28460 ys_118 x_28461) (length_17 x_28457 x_28381) (third_4 x_28458 x_28457) (splitAt_12 (pair_57 ys_118 zs_37) x_28458 x_28381)) (nstoogesort_14 x_28460 x_28381))))
(assert (forall ((x_28463 Int) (x_28464 Int) (x_28465 Int) (x_28466 Int) (x_28382 Int) (y_1187 Int) (z_1121 Int))
	(=> (and true (diseqInt x_28464 x_28466) (plus_63 x_28463 y_1187 z_1121) (plus_63 x_28464 x_28382 x_28463) (plus_63 x_28465 x_28382 y_1187) (plus_63 x_28466 x_28465 z_1121)) false)))
(assert (forall ((x_28467 Int) (x_28468 Int) (x_28383 Int) (y_1188 Int))
	(=> (and true (diseqInt x_28467 x_28468) (plus_63 x_28467 x_28383 y_1188) (plus_63 x_28468 y_1188 x_28383)) false)))
(assert (forall ((x_28469 Int) (x_28384 Int))
	(=> (and true (diseqInt x_28469 x_28384) (plus_63 x_28469 x_28384 zero_71)) false)))
(assert (forall ((x_28470 Int) (x_28385 Int))
	(=> (and true (diseqInt x_28470 x_28385) (plus_63 x_28470 zero_71 x_28385)) false)))
(assert (forall ((x_28471 list_134) (x_28472 Int) (x_28473 Int) (x_28386 Int) (xs_361 list_134))
	(=> (and true (diseqInt x_28472 x_28473) (nstoogesort_13 x_28471 xs_361) (count_24 x_28472 x_28386 x_28471) (count_24 x_28473 x_28386 xs_361)) false)))
(check-sat)
